(declare-const a Real)
(declare-const b Real)
(declare-const c Real)
(assert (= (+ a b c) 3))
(assert (> a 0))
(assert (> b 0))
(assert (> c 0))
(assert (not (<= (+ (* (pow (+ (* 400 (pow b 3)) (* 360 c (pow (+ (* (/ 1 2) a) (* (/ 1 2) b)) 4)) (* 560 (pow a 2) (pow b 3))) -1) (pow (+ (* 360 c (pow (+ (* (/ 1 2) a) (* (/ 1 2) b)) 4)) (* 400 c (pow b 3)) (* 560 (pow a 2) (pow b 3))) 2)) (* -3040 a (pow c 4)) (* -3040 b (pow a 4)) (* -2980 c (pow b 4)) (* -608 a (pow b 4)) (* -608 b (pow c 4)) (* -560 (pow a 2) (pow c 3)) (* -560 (pow a 3) (pow b 2)) (* -548 c (pow a 4)) (* 560 (pow b 2) (pow c 3)) (* 1520 (pow a 3) (pow c 2)) (* 2688 a b (pow c 3)) (* 2928 a c (pow b 3)) (* 2928 b c (pow a 3))) 0)))
(check-sat)
(get-model)
(exit)